NAME          DCAP_3_4_2_500_SS148
ROWS
 N  OBJ
 L  CON1
 L  CON2
 L  CON3
 L  CON4
 L  CON5
 L  CON6
 L  CON7
 L  CON8
 L  CON9
 L  CON10
 L  CON11
 L  CON12
 E  CON13
 E  CON14
 E  CON15
 E  CON16
 E  CON17
 E  CON18
 E  CON19
 E  CON20
COLUMNS
    x[1,1]    OBJ       6.180167      CON1      1.000000    
    x[1,1]    CON7      -1.000000     CON8      -1.000000   
    x[1,2]    OBJ       5.039546      CON2      1.000000    
    x[1,2]    CON8      -1.000000   
    x[2,1]    OBJ       6.732585      CON3      1.000000    
    x[2,1]    CON9      -1.000000     CON10     -1.000000   
    x[2,2]    OBJ       7.443064      CON4      1.000000    
    x[2,2]    CON10     -1.000000   
    x[3,1]    OBJ       6.563535      CON5      1.000000    
    x[3,1]    CON11     -1.000000     CON12     -1.000000   
    x[3,2]    OBJ       6.054841      CON6      1.000000    
    x[3,2]    CON12     -1.000000   
    MARKER    'MARKER'                'INTORG'
    u[1,1]    OBJ       48.076654     CON1      -1.000000   
    u[1,2]    OBJ       49.466655     CON2      -1.000000   
    u[2,1]    OBJ       49.996186     CON3      -1.000000   
    u[2,2]    OBJ       32.230043     CON4      -1.000000   
    u[3,1]    OBJ       20.066487     CON5      -1.000000   
    u[3,2]    OBJ       27.484319     CON6      -1.000000   
    y[1,1,1]  OBJ       7.005438      CON7      0.887636    
    y[1,1,1]  CON13     1.000000    
    y[1,1,2]  OBJ       6.404833      CON8      0.908804    
    y[1,1,2]  CON14     1.000000    
    y[1,2,1]  OBJ       8.243425      CON7      0.870653    
    y[1,2,1]  CON15     1.000000    
    y[1,2,2]  OBJ       6.960956      CON8      1.154808    
    y[1,2,2]  CON16     1.000000    
    y[1,3,1]  OBJ       9.196667      CON7      0.716817    
    y[1,3,1]  CON17     1.000000    
    y[1,3,2]  OBJ       6.423488      CON8      0.724210    
    y[1,3,2]  CON18     1.000000    
    y[1,4,1]  OBJ       6.335367      CON7      0.548998    
    y[1,4,1]  CON19     1.000000    
    y[1,4,2]  OBJ       7.064710      CON8      1.346879    
    y[1,4,2]  CON20     1.000000    
    y[2,1,1]  OBJ       5.587527      CON9      0.887636    
    y[2,1,1]  CON13     1.000000    
    y[2,1,2]  OBJ       7.437502      CON10     0.908804    
    y[2,1,2]  CON14     1.000000    
    y[2,2,1]  OBJ       7.906610      CON9      0.870653    
    y[2,2,1]  CON15     1.000000    
    y[2,2,2]  OBJ       5.892468      CON10     1.154808    
    y[2,2,2]  CON16     1.000000    
    y[2,3,1]  OBJ       6.067803      CON9      0.716817    
    y[2,3,1]  CON17     1.000000    
    y[2,3,2]  OBJ       5.060941      CON10     0.724210    
    y[2,3,2]  CON18     1.000000    
    y[2,4,1]  OBJ       6.573053      CON9      0.548998    
    y[2,4,1]  CON19     1.000000    
    y[2,4,2]  OBJ       5.988463      CON10     1.346879    
    y[2,4,2]  CON20     1.000000    
    y[3,1,1]  OBJ       8.360031      CON11     0.887636    
    y[3,1,1]  CON13     1.000000    
    y[3,1,2]  OBJ       9.740230      CON12     0.908804    
    y[3,1,2]  CON14     1.000000    
    y[3,2,1]  OBJ       8.034580      CON11     0.870653    
    y[3,2,1]  CON15     1.000000    
    y[3,2,2]  OBJ       9.405408      CON12     1.154808    
    y[3,2,2]  CON16     1.000000    
    y[3,3,1]  OBJ       5.580319      CON11     0.716817    
    y[3,3,1]  CON17     1.000000    
    y[3,3,2]  OBJ       5.013927      CON12     0.724210    
    y[3,3,2]  CON18     1.000000    
    y[3,4,1]  OBJ       7.665234      CON11     0.548998    
    y[3,4,1]  CON19     1.000000    
    y[3,4,2]  OBJ       9.210427      CON12     1.346879    
    y[3,4,2]  CON20     1.000000    
    z[1,1]    OBJ       636.816854    CON13     1.000000    
    z[1,2]    OBJ       583.314918    CON14     1.000000    
    z[2,1]    OBJ       719.227651    CON15     1.000000    
    z[2,2]    OBJ       881.122854    CON16     1.000000    
    z[3,1]    OBJ       959.522837    CON17     1.000000    
    z[3,2]    OBJ       805.496898    CON18     1.000000    
    z[4,1]    OBJ       677.904514    CON19     1.000000    
    z[4,2]    OBJ       597.364761    CON20     1.000000    
    MARKER    'MARKER'                 'INTEND'
RHS
    RHS       CON1      -0.000000     CON2      -0.000000   
    RHS       CON3      -0.000000     CON4      -0.000000   
    RHS       CON5      -0.000000     CON6      -0.000000   
    RHS       CON7      -0.000000     CON8      -0.000000   
    RHS       CON9      -0.000000     CON10     -0.000000   
    RHS       CON11     -0.000000     CON12     -0.000000   
    RHS       CON13     1.000000      CON14     1.000000    
    RHS       CON15     1.000000      CON16     1.000000    
    RHS       CON17     1.000000      CON18     1.000000    
    RHS       CON19     1.000000      CON20     1.000000    
BOUNDS
 BV BOUND     u[1,1]  
 BV BOUND     u[1,2]  
 BV BOUND     u[2,1]  
 BV BOUND     u[2,2]  
 BV BOUND     u[3,1]  
 BV BOUND     u[3,2]  
 BV BOUND     y[1,1,1]
 BV BOUND     y[1,1,2]
 BV BOUND     y[1,2,1]
 BV BOUND     y[1,2,2]
 BV BOUND     y[1,3,1]
 BV BOUND     y[1,3,2]
 BV BOUND     y[1,4,1]
 BV BOUND     y[1,4,2]
 BV BOUND     y[2,1,1]
 BV BOUND     y[2,1,2]
 BV BOUND     y[2,2,1]
 BV BOUND     y[2,2,2]
 BV BOUND     y[2,3,1]
 BV BOUND     y[2,3,2]
 BV BOUND     y[2,4,1]
 BV BOUND     y[2,4,2]
 BV BOUND     y[3,1,1]
 BV BOUND     y[3,1,2]
 BV BOUND     y[3,2,1]
 BV BOUND     y[3,2,2]
 BV BOUND     y[3,3,1]
 BV BOUND     y[3,3,2]
 BV BOUND     y[3,4,1]
 BV BOUND     y[3,4,2]
 BV BOUND     z[1,1]  
 BV BOUND     z[1,2]  
 BV BOUND     z[2,1]  
 BV BOUND     z[2,2]  
 BV BOUND     z[3,1]  
 BV BOUND     z[3,2]  
 BV BOUND     z[4,1]  
 BV BOUND     z[4,2]  
ENDATA
